c File:  san200_0.9_1.clq
c
c SOURCE: Laura Sanchis (laura@cs.colgate.edu)
c
c REFERENCE: "Test Case Construction for the Vertex Cover Problem", 
c DIMACS Workshop on Computational Support for Discrete Mathematics, 
c March, 1992, with additional work in a to be published technical
c report.
c
c 200 vertices 17910 edges 70 max clique
c 200 1990 130 5679 533826 25
p edge 200 17910